NetlogoNN/cases/Restaurant/mzn_wgt/restaurant.dzn
% define solely the weights for the instance
weights = [0.4, 0.6];
