NetlogoNN/cases/Restaurant/mzn_wgt/restaurant.fzn
array [1..3] of float: X_INTRODUCED_3_ = [1.0,-1.0,10.0];
array [1..7] of float: X_INTRODUCED_44_ = [1.0,0.6048319935798645,0.4973976910114288,0.01348417066037655,0.2344409972429276,-0.03564310446381569,0.7561257481575012];
array [1..7] of float: X_INTRODUCED_47_ = [1.0,-0.5163780450820923,-0.1760367900133133,-0.62294602394104,0.4925235211849213,0.3880875408649445,0.2098992764949799];
var 1..10: x:: output_var;
var 1..10: buy1:: output_var;
var 1..10: buy2:: output_var;
var float: objective:: output_var:: is_defined_var;
var float: spoil_ratio:: output_var;
var float: success_ratio:: output_var;
var 0.0..2.967035785317421: n_0_0_pow2_2layer:: is_defined_var:: output_var;
var 0.0..3.192390194293694: n_0_2_pow2_2layer:: is_defined_var:: output_var;
var 0.0..1.221094064414501: n_0_3_pow2_2layer:: is_defined_var:: output_var;
var 0.9893866553902626..9.713325120508671: n_0_4_pow2_2layer:: is_defined_var:: output_var;
var 0.0..4.021466195583344: n_0_5_pow2_2layer:: is_defined_var:: output_var;
var 0.0..1.821169261663768: n_1_0_pow2_2layer:: is_defined_var:: output_var;
var 0.0..1.711437611805951: n_1_1_pow2_2layer:: is_defined_var:: output_var;
var 0.0141440107223694..4.621255470635182: n_1_2_pow2_2layer:: is_defined_var:: output_var;
var 0.0..0.9201425280099534: n_1_3_pow2_2layer:: is_defined_var:: output_var;
var 0.0..2.943983966957556: n_1_4_pow2_2layer:: is_defined_var:: output_var;
var 0.0..1.13226445692646: n_1_5_pow2_2layer:: is_defined_var:: output_var;
var -4.828954137212179..-0.1492564569016712: n_2_0_pow2_2layer:: output_var:: is_defined_var;
var -2.74058614986469..2.251099456830986: n_2_1_pow2_2layer:: output_var:: is_defined_var;
var 1.0..10.0: X_INTRODUCED_4_ ::var_is_introduced :: is_defined_var;
var 1.0..10.0: X_INTRODUCED_5_ ::var_is_introduced :: is_defined_var;
var -6.355457201600075..2.967035785317421: X_INTRODUCED_7_ ::var_is_introduced :: is_defined_var;
var -6.935040570795536..-0.6252050846815109: X_INTRODUCED_10_ ::var_is_introduced :: is_defined_var;
var 0.0..0.0: X_INTRODUCED_11_ ::var_is_introduced :: is_defined_var;
var -4.948086270931526..3.192390194293694: X_INTRODUCED_13_ ::var_is_introduced :: is_defined_var;
var -5.081435687839985..1.221094064414501: X_INTRODUCED_16_ ::var_is_introduced :: is_defined_var;
var 0.9893866553902626..9.713325120508671: X_INTRODUCED_19_ ::var_is_introduced :: is_defined_var;
var -4.907704442739487..4.021466195583344: X_INTRODUCED_22_ ::var_is_introduced :: is_defined_var;
var -1.285558795477022..1.821169261663768: X_INTRODUCED_25_ ::var_is_introduced :: is_defined_var;
var -5.33383578742281..1.711437611805951: X_INTRODUCED_28_ ::var_is_introduced :: is_defined_var;
var 0.0141440107223694..4.621255470635182: X_INTRODUCED_31_ ::var_is_introduced :: is_defined_var;
var -2.934154502141675..0.9201425280099534: X_INTRODUCED_34_ ::var_is_introduced :: is_defined_var;
var -0.1505226632551513..2.943983966957556: X_INTRODUCED_37_ ::var_is_introduced :: is_defined_var;
var -0.6079805996510101..1.13226445692646: X_INTRODUCED_40_ ::var_is_introduced :: is_defined_var;
var 0.02227748992684045..23.31879805929862: X_INTRODUCED_48_ ::var_is_introduced :: is_defined_var;
var 1.022277489926841..24.31879805929862: X_INTRODUCED_50_ ::var_is_introduced :: is_defined_var;
var float: X_INTRODUCED_51_ ::var_is_introduced :: is_defined_var;
var -6.169331993358929..7.510812444830167: X_INTRODUCED_52_ ::var_is_introduced :: is_defined_var;
var -5.169331993358929..8.510812444830167: X_INTRODUCED_53_ ::var_is_introduced :: is_defined_var;
var float: X_INTRODUCED_54_ ::var_is_introduced :: is_defined_var;
constraint float_lin_eq(X_INTRODUCED_3_,[objective,success_ratio,spoil_ratio],-0.0):: defines_var(objective);
constraint float_max(X_INTRODUCED_7_,0.0,n_0_0_pow2_2layer):: defines_var(n_0_0_pow2_2layer);
constraint float_max(X_INTRODUCED_10_,0.0,X_INTRODUCED_11_):: defines_var(X_INTRODUCED_11_);
constraint float_max(X_INTRODUCED_13_,0.0,n_0_2_pow2_2layer):: defines_var(n_0_2_pow2_2layer);
constraint float_max(X_INTRODUCED_16_,0.0,n_0_3_pow2_2layer):: defines_var(n_0_3_pow2_2layer);
constraint float_max(X_INTRODUCED_19_,0.0,n_0_4_pow2_2layer):: defines_var(n_0_4_pow2_2layer);
constraint float_max(X_INTRODUCED_22_,0.0,n_0_5_pow2_2layer):: defines_var(n_0_5_pow2_2layer);
constraint float_max(X_INTRODUCED_25_,0.0,n_1_0_pow2_2layer):: defines_var(n_1_0_pow2_2layer);
constraint float_max(X_INTRODUCED_28_,0.0,n_1_1_pow2_2layer):: defines_var(n_1_1_pow2_2layer);
constraint float_max(X_INTRODUCED_31_,0.0,n_1_2_pow2_2layer):: defines_var(n_1_2_pow2_2layer);
constraint float_max(X_INTRODUCED_34_,0.0,n_1_3_pow2_2layer):: defines_var(n_1_3_pow2_2layer);
constraint float_max(X_INTRODUCED_37_,0.0,n_1_4_pow2_2layer):: defines_var(n_1_4_pow2_2layer);
constraint float_max(X_INTRODUCED_40_,0.0,n_1_5_pow2_2layer):: defines_var(n_1_5_pow2_2layer);
constraint float_lin_eq(X_INTRODUCED_44_,[n_2_0_pow2_2layer,n_1_5_pow2_2layer,n_1_4_pow2_2layer,n_1_3_pow2_2layer,n_1_2_pow2_2layer,n_1_1_pow2_2layer,n_1_0_pow2_2layer],-0.2069414705038071):: defines_var(n_2_0_pow2_2layer);
constraint float_lin_eq(X_INTRODUCED_47_,[n_2_1_pow2_2layer,n_1_5_pow2_2layer,n_1_4_pow2_2layer,n_1_3_pow2_2layer,n_1_2_pow2_2layer,n_1_1_pow2_2layer,n_1_0_pow2_2layer],0.5819405913352966):: defines_var(n_2_1_pow2_2layer);
constraint float_eq(X_INTRODUCED_51_,1.0);
constraint float_eq(X_INTRODUCED_54_,1.0);
constraint int2float(buy1,X_INTRODUCED_4_):: defines_var(X_INTRODUCED_4_);
constraint int2float(buy2,X_INTRODUCED_5_):: defines_var(X_INTRODUCED_5_);
constraint float_lin_eq([-0.6859040260314941,0.3499285280704498,-1.0],[X_INTRODUCED_5_,X_INTRODUCED_4_,X_INTRODUCED_7_],-0.1536545306444168):: defines_var(X_INTRODUCED_7_);
constraint float_lin_eq([-0.6628877520561218,0.03820507973432541,-1.0],[X_INTRODUCED_5_,X_INTRODUCED_4_,X_INTRODUCED_10_],0.3443681299686432):: defines_var(X_INTRODUCED_10_);
constraint float_lin_eq([0.3724659085273743,-0.5320314764976501,-1.0],[X_INTRODUCED_5_,X_INTRODUCED_4_,X_INTRODUCED_13_],0.00023741448239889):: defines_var(X_INTRODUCED_13_);
constraint float_lin_eq([-0.5206766724586487,0.1796044111251831,-1.0],[X_INTRODUCED_5_,X_INTRODUCED_4_,X_INTRODUCED_16_],0.05427337437868118):: defines_var(X_INTRODUCED_16_);
constraint float_lin_eq([0.3822623491287231,0.5870641469955444,-1.0],[X_INTRODUCED_5_,X_INTRODUCED_4_,X_INTRODUCED_19_],-0.02006015926599503):: defines_var(X_INTRODUCED_19_);
constraint float_lin_eq([-0.5452951788902283,0.4468348920345306,-1.0],[X_INTRODUCED_5_,X_INTRODUCED_4_,X_INTRODUCED_22_],-0.09841245412826538):: defines_var(X_INTRODUCED_22_);
constraint float_lin_eq([-0.1974772959947586,-0.05718468874692917,-0.2900325357913971,0.104188434779644,0.1257394850254059,0.3798191249370575,-1.0],[n_0_5_pow2_2layer,n_0_4_pow2_2layer,n_0_3_pow2_2layer,n_0_2_pow2_2layer,X_INTRODUCED_11_,n_0_0_pow2_2layer,X_INTRODUCED_25_],-0.4181999564170837):: defines_var(X_INTRODUCED_25_);
constraint float_lin_eq([0.3521027565002441,-0.4432003498077393,-0.05158598721027374,0.2189738750457764,-0.3307687938213348,-0.3373097479343414,-1.0],[n_0_5_pow2_2layer,n_0_4_pow2_2layer,n_0_3_pow2_2layer,n_0_2_pow2_2layer,X_INTRODUCED_11_,n_0_0_pow2_2layer,X_INTRODUCED_28_],-0.03491473942995071):: defines_var(X_INTRODUCED_28_);
constraint float_lin_eq([0.3589171469211578,-0.020158302038908,0.4711128771305084,0.4957161545753479,-0.1253782510757446,0.2797694504261017,-1.0],[n_0_5_pow2_2layer,n_0_4_pow2_2layer,n_0_3_pow2_2layer,n_0_2_pow2_2layer,X_INTRODUCED_11_,n_0_0_pow2_2layer,X_INTRODUCED_31_],-0.2099481523036957):: defines_var(X_INTRODUCED_31_);
constraint float_lin_eq([0.1088647171854973,-0.1834289729595184,0.1470902115106583,0.2327170372009277,-0.06502552330493927,-0.301224410533905,-1.0],[n_0_5_pow2_2layer,n_0_4_pow2_2layer,n_0_3_pow2_2layer,n_0_2_pow2_2layer,X_INTRODUCED_11_,n_0_0_pow2_2layer,X_INTRODUCED_34_],0.2587056457996368):: defines_var(X_INTRODUCED_34_);
constraint float_lin_eq([0.248104989528656,-0.1017914414405823,0.423164576292038,0.1073789745569229,0.3886523246765137,0.1176996901631355,-1.0],[n_0_5_pow2_2layer,n_0_4_pow2_2layer,n_0_3_pow2_2layer,n_0_2_pow2_2layer,X_INTRODUCED_11_,n_0_0_pow2_2layer,X_INTRODUCED_37_],-0.8382107019424438):: defines_var(X_INTRODUCED_37_);
constraint float_lin_eq([-0.02963263168931007,-0.08498691022396088,0.1818002462387085,-0.1327541768550873,-0.1183983013033867,0.07881924510002136,-1.0],[n_0_5_pow2_2layer,n_0_4_pow2_2layer,n_0_3_pow2_2layer,n_0_2_pow2_2layer,X_INTRODUCED_11_,n_0_0_pow2_2layer,X_INTRODUCED_40_],-0.7604946494102478):: defines_var(X_INTRODUCED_40_);
constraint float_times(n_2_0_pow2_2layer,n_2_0_pow2_2layer,X_INTRODUCED_48_):: defines_var(X_INTRODUCED_48_);
constraint float_lin_eq([1.0,-1.0],[X_INTRODUCED_48_,X_INTRODUCED_50_],-1.0):: defines_var(X_INTRODUCED_50_);
constraint float_times(success_ratio,X_INTRODUCED_50_,X_INTRODUCED_51_):: defines_var(X_INTRODUCED_51_);
constraint float_times(n_2_1_pow2_2layer,n_2_1_pow2_2layer,X_INTRODUCED_52_):: defines_var(X_INTRODUCED_52_);
constraint float_lin_eq([1.0,-1.0],[X_INTRODUCED_52_,X_INTRODUCED_53_],-1.0):: defines_var(X_INTRODUCED_53_);
constraint float_times(spoil_ratio,X_INTRODUCED_53_,X_INTRODUCED_54_):: defines_var(X_INTRODUCED_54_);
solve  minimize spoil_ratio;
